
Gurobi 6.5.2 (linux64) logging started Tue Sep  6 10:06:17 2016

Optimize a model with 41 rows, 77 columns and 159 nonzeros
Coefficient statistics:
  Matrix range    [1e+00, 2e+00]
  Objective range [6e+00, 1e+02]
  Bounds range    [1e+00, 1e+00]
  RHS range       [1e+00, 1e+00]
Presolve removed 22 rows and 20 columns
Presolve time: 0.00s
Presolved: 19 rows, 57 columns, 113 nonzeros
Variable types: 0 continuous, 57 integer (57 binary)
Found heuristic solution: objective 1051.0000000

Root relaxation: objective 8.495000e+02, 27 iterations, 0.00 seconds

    Nodes    |    Current Node    |     Objective Bounds      |     Work
 Expl Unexpl |  Obj  Depth IntInf | Incumbent    BestBd   Gap | It/Node Time

     0     0  849.50000    0    4 1051.00000  849.50000  19.2%     -    0s
H    0     0                     957.0000000  849.50000  11.2%     -    0s
*    0     0               0     850.0000000  850.00000  0.00%     -    0s

Cutting planes:
  Gomory: 1
  Cover: 2
  Zero half: 1
  Lazy constraints: 5

Explored 0 nodes (30 simplex iterations) in 0.00 seconds
Thread count was 8 (of 8 available processors)

Optimal solution found (tolerance 1.00e-04)
Best objective 8.500000000000e+02, best bound 8.500000000000e+02, gap 0.0%
